set VV := 0 1 2 3 4 5 6 7 8 9 10 11 12 13 14 15 16 17 18 ;
set VS := 0 1 2 3 4 5 6 7 8 9 10 11 12 13 14 15 16 17 18 19 20 21 22 23 24 25 26 27 28 29 30 31 32 33 34 35 36 37 38 39 40 41 42 ;
param cv := 
0 25
1 20
2 14
3 11
4 19
5 20
6 23
7 15
8 11
9 15
10 21
11 15
12 24
13 22
14 20
15 11
16 20
17 24
18 11
;
param cs := 
0 32
1 22
2 34
3 28
4 28
5 23
6 30
7 25
8 21
9 27
10 26
11 22
12 32
13 21
14 30
15 20
16 36
17 22
18 21
19 27
20 26
21 40
22 34
23 39
24 38
25 38
26 29
27 26
28 40
29 40
30 20
31 24
32 34
33 33
34 31
35 22
36 40
37 27
38 25
39 32
40 36
41 35
42 25
;
param bv:	 0 1 2 3 4 5 6 7 8 9 10 11 12 13 14 15 16 17 18 := 
		0 0 0 19 0 21 0 0 0 0 0 0 0 0 19 0 0 0 0 0 
		1 0 0 0 0 0 18 0 0 0 0 0 0 0 0 0 0 13 11 13 
		2 0 0 0 0 0 0 15 0 0 0 0 0 0 0 0 12 0 0 0 
		3 0 0 0 0 0 0 0 0 0 0 0 0 0 0 20 0 0 0 0 
		4 0 0 0 0 0 0 18 0 0 0 0 0 0 0 0 0 0 19 0 
		5 0 0 0 0 0 0 0 0 0 0 0 22 0 0 0 0 0 0 0 
		6 0 0 0 0 0 0 0 0 0 0 0 0 0 0 0 0 0 0 0 
		7 0 0 0 0 0 0 0 0 0 0 12 0 0 0 14 0 0 0 23 
		8 0 0 0 0 0 0 0 0 0 0 0 11 0 0 0 0 0 0 0 
		9 0 0 0 0 0 0 0 0 0 0 0 0 0 0 0 0 22 0 0 
		10 0 0 0 0 0 0 0 0 0 0 0 0 21 0 0 0 0 0 0 
		11 0 0 0 0 0 0 0 0 0 0 0 0 0 0 0 0 0 0 0 
		12 0 0 0 0 0 0 0 0 0 0 0 0 0 25 0 0 0 0 0 
		13 0 0 0 0 0 0 0 0 0 0 0 0 0 0 0 0 0 0 0 
		14 0 0 0 0 0 0 0 0 0 0 0 0 0 0 0 0 24 0 0 
		15 0 0 0 0 0 0 0 0 0 0 0 0 0 0 0 0 16 0 17 
		16 0 0 0 0 0 0 0 0 0 0 0 0 0 0 0 0 0 0 0 
		17 0 0 0 0 0 0 0 0 0 0 0 0 0 0 0 0 0 0 0 
		18 0 0 0 0 0 0 0 0 0 0 0 0 0 0 0 0 0 0 0 
;
param bs:	 0 1 2 3 4 5 6 7 8 9 10 11 12 13 14 15 16 17 18 19 20 21 22 23 24 25 26 27 28 29 30 31 32 33 34 35 36 37 38 39 40 41 42 := 
		0 0 34 0 0 0 0 31 0 0 0 0 22 0 0 0 0 0 0 0 0 0 0 0 0 0 0 0 0 0 0 0 0 0 0 0 0 0 40 0 0 0 35 0 
		1 34 0 35 0 0 27 0 0 0 0 0 0 33 0 0 24 0 0 0 0 0 0 0 0 0 0 23 35 20 31 0 0 0 0 0 0 0 0 0 30 0 0 27 
		2 0 35 0 0 0 0 21 0 0 0 0 0 0 0 0 0 0 0 0 0 0 21 0 0 0 0 0 0 0 0 0 0 28 0 0 0 0 0 0 24 0 0 0 
		3 0 0 0 0 0 0 0 0 0 0 0 0 0 0 0 34 0 0 0 0 0 0 0 0 0 40 38 0 0 0 0 0 0 0 0 25 0 0 0 0 0 0 0 
		4 0 0 0 0 0 0 0 0 0 0 0 0 0 0 0 0 0 0 0 0 0 0 0 0 0 0 0 0 0 0 0 0 0 0 0 0 0 0 0 0 0 21 0 
		5 0 27 0 0 0 0 0 0 23 0 0 0 0 0 0 0 0 0 0 0 0 0 0 0 0 0 0 0 0 0 0 0 0 0 0 0 0 34 0 0 0 30 0 
		6 31 0 21 0 0 0 0 0 0 0 0 0 0 0 0 37 0 0 0 0 0 0 29 0 0 0 0 0 28 0 0 0 0 0 0 0 0 0 0 0 0 0 0 
		7 0 0 0 0 0 0 0 0 0 0 0 0 0 0 0 0 0 0 29 0 0 0 0 0 0 0 0 0 0 39 0 0 0 38 0 0 0 0 25 0 0 0 23 
		8 0 0 0 0 0 23 0 0 0 0 0 29 0 0 0 0 26 0 0 0 0 0 0 0 0 0 0 0 0 0 0 0 0 0 0 0 0 0 0 0 0 0 30 
		9 0 0 0 0 0 0 0 0 0 0 0 0 0 0 0 24 0 0 0 0 0 0 0 0 0 0 0 38 0 0 0 0 0 0 0 0 0 30 0 0 0 0 0 
		10 0 0 0 0 0 0 0 0 0 0 0 0 0 0 0 0 0 0 0 0 0 0 0 0 0 0 0 0 0 0 0 0 0 38 0 0 0 0 0 0 0 23 0 
		11 22 0 0 0 0 0 0 0 29 0 0 0 0 0 0 0 0 0 0 0 0 0 0 0 0 0 0 0 0 0 0 0 0 0 0 0 33 0 0 0 0 36 0 
		12 0 33 0 0 0 0 0 0 0 0 0 0 0 0 0 0 0 0 25 25 0 0 0 0 0 0 0 0 0 0 0 0 0 0 0 0 0 0 0 26 0 40 31 
		13 0 0 0 0 0 0 0 0 0 0 0 0 0 0 0 0 0 0 0 0 27 0 0 0 0 0 0 0 0 37 23 0 0 0 0 0 30 0 0 25 0 0 0 
		14 0 0 0 0 0 0 0 0 0 0 0 0 0 0 0 0 0 0 0 0 0 0 0 0 0 0 0 29 0 0 0 0 0 0 0 29 0 0 0 0 0 0 0 
		15 0 24 0 34 0 0 37 0 0 24 0 0 0 0 0 0 0 0 0 0 0 0 0 0 0 0 0 0 0 0 0 0 0 0 0 0 0 37 0 0 0 0 0 
		16 0 0 0 0 0 0 0 0 26 0 0 0 0 0 0 0 0 0 0 0 29 0 33 0 0 0 0 0 0 0 0 0 0 0 0 0 21 0 0 0 0 0 0 
		17 0 0 0 0 0 0 0 0 0 0 0 0 0 0 0 0 0 0 0 0 0 0 0 0 0 0 0 0 0 0 0 0 0 29 0 0 0 24 0 0 0 0 0 
		18 0 0 0 0 0 0 0 29 0 0 0 0 25 0 0 0 0 0 0 31 0 0 0 0 0 0 0 0 0 0 0 38 0 26 0 0 0 0 23 0 0 0 23 
		19 0 0 0 0 0 0 0 0 0 0 0 0 25 0 0 0 0 0 31 0 0 0 0 34 0 0 0 40 0 39 0 0 0 28 0 0 0 0 0 0 0 0 39 
		20 0 0 0 0 0 0 0 0 0 0 0 0 0 27 0 0 29 0 0 0 0 0 0 0 0 0 0 0 37 0 0 0 0 0 0 0 0 0 0 0 0 0 0 
		21 0 0 21 0 0 0 0 0 0 0 0 0 0 0 0 0 0 0 0 0 0 0 0 0 0 0 0 0 0 0 0 20 0 0 0 0 0 34 0 0 0 21 0 
		22 0 0 0 0 0 0 29 0 0 0 0 0 0 0 0 0 33 0 0 0 0 0 0 0 0 0 0 0 0 0 0 0 0 0 0 0 0 0 0 40 0 0 35 
		23 0 0 0 0 0 0 0 0 0 0 0 0 0 0 0 0 0 0 0 34 0 0 0 0 0 0 29 0 28 0 0 0 0 0 0 0 0 0 0 0 0 0 0 
		24 0 0 0 0 0 0 0 0 0 0 0 0 0 0 0 0 0 0 0 0 0 0 0 0 0 0 0 0 0 0 0 0 0 0 36 0 0 0 0 0 0 0 30 
		25 0 0 0 40 0 0 0 0 0 0 0 0 0 0 0 0 0 0 0 0 0 0 0 0 0 0 0 0 34 0 0 0 0 0 0 0 0 0 0 0 0 0 0 
		26 0 23 0 38 0 0 0 0 0 0 0 0 0 0 0 0 0 0 0 0 0 0 0 29 0 0 0 0 27 0 0 0 0 0 0 0 0 0 0 0 33 0 0 
		27 0 35 0 0 0 0 0 0 0 38 0 0 0 0 29 0 0 0 0 40 0 0 0 0 0 0 0 0 0 0 0 0 0 0 0 0 0 0 39 0 29 0 0 
		28 0 20 0 0 0 0 28 0 0 0 0 0 0 0 0 0 0 0 0 0 37 0 0 28 0 34 27 0 0 0 0 0 0 0 0 0 0 0 0 0 0 0 0 
		29 0 31 0 0 0 0 0 39 0 0 0 0 0 37 0 0 0 0 0 39 0 0 0 0 0 0 0 0 0 0 0 0 0 36 0 0 0 0 0 0 0 33 0 
		30 0 0 0 0 0 0 0 0 0 0 0 0 0 23 0 0 0 0 0 0 0 0 0 0 0 0 0 0 0 0 0 0 0 0 0 0 0 0 0 0 0 0 0 
		31 0 0 0 0 0 0 0 0 0 0 0 0 0 0 0 0 0 0 38 0 0 20 0 0 0 0 0 0 0 0 0 0 0 0 33 0 0 0 0 0 0 0 24 
		32 0 0 28 0 0 0 0 0 0 0 0 0 0 0 0 0 0 0 0 0 0 0 0 0 0 0 0 0 0 0 0 0 0 0 0 0 0 0 0 0 0 0 0 
		33 0 0 0 0 0 0 0 38 0 0 38 0 0 0 0 0 0 29 26 28 0 0 0 0 0 0 0 0 0 36 0 0 0 0 0 0 30 0 0 0 0 0 0 
		34 0 0 0 0 0 0 0 0 0 0 0 0 0 0 0 0 0 0 0 0 0 0 0 0 36 0 0 0 0 0 0 33 0 0 0 0 0 0 0 0 0 0 0 
		35 0 0 0 25 0 0 0 0 0 0 0 0 0 0 29 0 0 0 0 0 0 0 0 0 0 0 0 0 0 0 0 0 0 0 0 0 0 0 0 0 0 33 0 
		36 0 0 0 0 0 0 0 0 0 0 0 33 0 30 0 0 21 0 0 0 0 0 0 0 0 0 0 0 0 0 0 0 0 30 0 0 0 0 0 0 0 0 0 
		37 40 0 0 0 0 34 0 0 0 30 0 0 0 0 0 37 0 24 0 0 0 34 0 0 0 0 0 0 0 0 0 0 0 0 0 0 0 0 0 0 0 0 0 
		38 0 0 0 0 0 0 0 25 0 0 0 0 0 0 0 0 0 0 23 0 0 0 0 0 0 0 0 39 0 0 0 0 0 0 0 0 0 0 0 0 0 0 0 
		39 0 30 24 0 0 0 0 0 0 0 0 0 26 25 0 0 0 0 0 0 0 0 40 0 0 0 0 0 0 0 0 0 0 0 0 0 0 0 0 0 39 0 0 
		40 0 0 0 0 0 0 0 0 0 0 0 0 0 0 0 0 0 0 0 0 0 0 0 0 0 0 33 29 0 0 0 0 0 0 0 0 0 0 0 39 0 0 0 
		41 35 0 0 0 21 30 0 0 0 0 23 36 40 0 0 0 0 0 0 0 0 21 0 0 0 0 0 0 0 33 0 0 0 0 0 33 0 0 0 0 0 0 0 
		42 0 27 0 0 0 0 0 23 30 0 0 0 31 0 0 0 0 0 23 39 0 0 35 0 30 0 0 0 0 0 0 24 0 0 0 0 0 0 0 0 0 0 0 
;
